p cnf 50 20
x -3 -4 -5 -6 8 9 10 -11 12 -16 -19 -20 -23 -24 -25 -26 28 29 -30 -32 -36 -38 -40 41 -45 -47 -49 50 0
x 1 -3 -6 -7 -12 -14 17 -19 -24 25 -27 -28 30 31 32 -36 40 44 45 46 -47 0
x 2 3 -5 -6 -7 10 -12 -17 -21 -23 25 -26 28 29 -30 31 32 33 -34 -36 41 50 0
x -4 -5 6 8 -14 -16 -21 22 -23 -25 29 31 33 34 35 -36 -38 -39 -40 44 -45 47 48 -50 0
x -3 4 -7 8 -10 13 -15 18 -20 -22 -23 25 30 31 -32 33 -34 37 -39 -42 43 45 -46 47 49 -50 0
x 1 -4 5 7 -9 -12 13 -15 16 17 -18 -23 -24 30 32 34 35 -36 -37 -40 -43 -45 46 49 50 0
x -1 4 8 -11 13 -14 15 -16 -19 -22 23 26 -27 28 -29 30 33 -38 39 48 0
x -1 -3 -4 -6 -9 10 11 12 -13 16 -19 20 23 -25 -28 33 -36 -37 41 -43 44 45 46 -47 0
x -1 -5 -6 -11 12 13 -15 16 17 -20 -22 -24 25 -27 28 29 -30 33 -34 -35 36 -40 -42 44 -45 -47 48 0
x -2 5 6 -10 -12 -16 20 22 25 26 -27 -29 30 -31 32 -34 -35 -39 41 -43 46 49 0
x 1 -2 6 8 10 -13 -17 -18 19 -20 21 -25 -28 31 32 -34 35 36 37 -39 -41 43 -44 45 47 50 0
x 2 -3 4 5 6 -8 -14 -15 -17 20 -21 -25 29 -30 -31 -35 37 39 -40 -41 42 43 44 -45 -46 -47 0
x -1 3 4 5 -6 8 -9 -10 -14 15 -16 -17 18 -19 20 -25 -26 -27 -29 -35 -36 -39 44 45 -46 48 50 0
x -1 5 10 -12 16 -17 -18 -20 -22 24 27 29 30 32 37 38 39 -40 43 -46 0
x 6 -7 -9 -10 -11 -12 19 -22 -24 -25 -29 32 -38 -39 41 -44 45 -46 -47 -48 0
x 3 5 -8 -9 10 11 12 -13 16 -18 29 -30 32 -33 -34 36 -38 -39 42 44 -46 -47 -48 49 0
x -1 -4 7 -8 -10 -12 13 15 -21 -22 23 25 26 -27 -28 30 -33 -37 -39 -42 -47 -49 50 0
x 2 3 -4 -8 9 -10 -11 13 14 15 17 -18 19 20 -24 25 -26 27 29 33 -37 38 40 -44 -45 -46 -47 -48 -49 50 0
x -2 -9 -12 -13 14 -16 25 -26 27 37 -39 42 43 44 45 48 -49 50 0
x -2 4 -7 -10 12 -14 15 -18 -19 -24 25 27 -28 30 -32 -35 -36 37 -38 39 -42 44 45 -46 47 -49 0
g -15